SYSTEM=2Xe_CC3_TBA
ISTART=0
ISMEAR=0
SIGMA=0.01
LWAVE=.FALSE.
LCHARG=.FALSE.
ENCUT=1000
PREC=Accurate
LREAL=A
EDIFF=1e-6
NELM=100
NELMIN=6
IVDW=13
NPAR=64
ISIF=2
NSW=0
