2Xe_TBA_CC3
0
Monkhorst-Pack
1 1 1
0 0 0
