POSCAR file written by OVITO Basic 3.10.3
1
23.86466077 0.0 0.0
0.0 23.86466077 0.0
0.0 0.0 23.86466077
O C H F Xe N 
100 472 434 150 2 12 
Direct
0.9824111189 0.8357850381 0.7065854907
0.9925536373 0.5646667355 0.6612417014
0.3416740983 0.5298211385 0.6963158081
0.5292273694 0.4160843238 0.5471834138
0.058498679 9.3198223995e-04 0.0549416492
0.072438257 0.2383957989 0.9490826012
0.1224639201 0.3747684246 0.6775178996
0.1791276353 0.1604456048 0.8187461996
0.8996187516 0.9689471421 0.2423301301
0.7084421804 0.1554669423 0.2403129512
0.2634802338 0.3756400167 0.8771332789
0.3251256037 0.3558054905 0.623634423
0.5312039745 0.3644971409 0.2461599315
0.7412418383 0.505015026 0.1983836215
0.516516768 0.4933068278 0.1351622393
0.6146133612 0.7455877627 0.1399570969
0.9877782864 0.4356780756 0.2014762148
0.0603423407 0.4355421148 0.4553808732
0.1113997532 0.0801374764 0.6782421852
0.2688766047 0.9027140669 0.6344951909
0.6618365169 0.1160972673 0.7925862325
0.8387942051 0.9243919963 0.8557428759
0.3092814661 0.5836330654 0.1982473761
0.4546132 0.6452250643 0.9757381877
0.2475678304 0.8011805043 0.7549032242
0.310174062 0.050361763 0.7909931682
0.5014399846 0.8662142843 0.1693665721
0.4139536277 0.0834671839 0.0549573318
0.9444153863 0.2064990467 0.3752998095
0.0983683704 0.0487184625 0.2376089145
0.1840556437 0.66643094 0.0697148778
0.2408315293 0.5164045477 0.868524445
0.1773608865 0.9497693618 0.337638822
0.2374937182 0.0495996876 0.127967682
0.0486912595 0.8764364091 0.8896649127
0.2827222941 0.7424535392 0.8975814291
0.9353551322 0.1799330194 0.1349736546
0.7796252928 0.2201101227 0.9170378255
0.4718776302 0.1432255603 0.7305145666
0.6571746283 0.0744686068 0.53524754
0.8290519543 0.7621626071 0.9530242361
0.6533290173 0.6901373704 0.7687149529
0.822404573 0.1103561528 0.0918026404
0.9397993391 0.8690951772 0.0745837256
0.4437943419 0.2066308596 0.3496032984
0.4029144698 0.3708275774 0.5550078339
0.4177749207 0.0520583725 0.4182610399
0.4033013883 0.0436840867 0.680950274
0.3116726268 0.6172714367 0.5016269427
0.2104974845 0.3789932079 0.5066678947
0.6142542147 0.8927973297 0.7655603692
0.4546543357 0.8391826594 0.9712377579
0.9368999185 0.3334411835 0.8026822214
0.807248914 0.5046712851 0.6486316554
-0.025059705 0.2058681352 0.5783053052
0.1126882601 0.0728492069 0.3913625477
0.4921424211 0.4125866512 0.9353496706
0.7317830477 0.3468597501 0.8434546283
0.1195420826 0.4563564953 0.9461950223
0.0381304641 0.6910211781 0.8708433784
0.7340228759 0.0541048424 0.4252692623
0.5825384008 1.02101947 0.2206131183
0.7715147669 0.7817938034 0.0722657182
0.7592440816 0.5131942707 0.0784785029
0.1594524907 0.7907680571 0.5320180925
0.1872749654 0.6403924052 0.3233229252
0.0405108516 0.6262923996 0.1121749706
0.2111106019 0.4453341157 0.194611552
0.3946444716 0.7938642486 0.4708428499
0.5786566255 0.8664545107 0.6463165431
0.4869601413 0.3028398107 0.9945827531
0.3154069606 0.4085103574 0.1734283118
0.1083016262 0.2473473269 0.1766486501
0.2424317176 0.2324902195 0.9538933534
0.483948631 0.1317561113 0.8900045861
0.2728363941 0.0656051848 1.0087481968
0.7563094474 0.3958431842 0.1135506922
0.0174519376 0.359521757 0.0719373557
0.5977234769 0.600540766 0.9702542288
0.5550337299 0.8597460411 1.0157514361
0.8702146375 0.7711630422 0.4212031433
0.9237122875 0.0050141756 0.5085000142
0.6852125365 0.8221250534 0.314517978
0.5861014374 0.999065734 0.4638716559
0.8573365478 0.6818091159 0.2387900325
0.1014566477 0.7782709287 0.3020257937
0.919171397 0.1492682659 0.8003103645
0.9031828664 0.9642231307 0.9826502684
0.3027775031 0.9112081554 0.0751261691
0.307310357 0.7514679388 0.2937613184
0.2393188981 0.1481956913 0.5408398416
0.1902518076 0.1762383162 0.2840727813
0.6256265867 0.1827205097 1.008086741
0.5974337489 0.9444669278 0.1273901146
0.7968189397 0.2306696815 0.5650083402
0.9307353448 0.4619545028 0.5814797936
0.8531856768 0.2953287825 0.3557302981
0.6015934376 0.3371619181 0.4160805832
0.4451504114 0.4436755767 0.4092959122
0.1918526349 0.3674013519 0.3862588079
1.0011213903 0.6674802405 0.6560902705
0.9867390141 0.7820716615 0.6838262939
0.994552658 0.6843587926 0.7120407771
0.9920748096 0.7093533544 0.6156653917
0.9885839584 0.7398286458 0.725293778
0.9879799724 0.764727987 0.6284513983
0.0160800061 0.6105635127 0.6315968174
0.9907255112 0.8815962101 0.6787065631
0.4738584445 0.4915067012 0.5868463837
0.3878403213 0.5153937564 0.6611129214
0.4714465874 0.4648346221 0.6385913371
0.4365208951 0.5352207338 0.5771024823
0.4275367938 0.4754818273 0.6758667884
0.3916940182 0.5448661469 0.6115188961
0.5102792224 0.4708895152 0.5381985687
0.3118887045 0.4883942857 0.7173036326
0.0801726045 0.1743868815 1.0255333242
0.0694880998 0.0575848776 0.0429388563
0.0492588649 0.1535909509 0.0711049743
0.1085211391 0.1355802038 0.9928094205
0.0421651634 0.0956933921 0.0788698238
0.10259929 0.0772481154 1.0009247314
0.0757979943 0.2353301241 1.0075874248
0.1021710291 0.9652085715 0.056082459
0.1360573461 0.2508878864 0.8009919083
0.1250535568 0.3343162715 0.7212476941
0.1469465803 0.2396785483 0.7447849597
0.1143912087 0.3037867552 0.8140877692
0.1385507794 0.2801803556 0.7050355742
0.1114724054 0.3476907302 0.775672285
0.1479872923 0.206163329 0.8435669719
0.0760627032 0.39864672 0.6613225569
0.7503677849 0.0616961965 0.2337665707
0.847769485 -0.00212325 0.2374026287
0.7979198122 0.0838419988 0.2584297304
0.7529713681 0.0101317351 0.2085192435
0.8465069219 0.0525032927 0.259605771
0.8008736728 0.9778256257 0.2100997759
0.6977268967 0.096502356 0.237037206
0.9011023914 0.9224275045 0.273902571
0.3288521633 0.3324442428 0.7200406851
0.282068193 0.3631423042 0.8218181381
0.3632748994 0.3420932197 0.7648264585
0.2716934271 0.3376957656 0.7260232545
0.3394480499 0.3566275516 0.8148824971
0.2473677735 0.353981245 0.7758086884
0.3526934307 0.3206615143 0.6624656865
0.2107816922 0.3684230241 0.8932306558
0.691444178 0.4284333508 0.2377649992
0.5866599637 0.3808334322 0.2402104583
0.6853307913 0.3716005945 0.2304730385
0.6446792338 0.4635074982 0.2475036464
0.6322092019 0.3466971783 0.2306457692
0.5919418715 0.4388056755 0.2516631201
0.7466363315 0.459118993 0.2317473042
0.5163444483 0.3132049771 0.2350485072
0.5748908779 0.6539580361 0.1660286584
0.5325361204 0.548123607 0.1470076413
0.5164354515 0.646510783 0.1610566795
0.6085408454 0.6074214253 0.1610536675
0.4958516152 0.5932194782 0.1489631788
0.5896967229 0.5538497273 0.15406826
0.6016625741 0.7085086628 0.1846248435
0.4668900647 0.4727942395 0.1215221355
0.8579212832 0.6334863121 0.7635134803
0.8789834485 0.5771660856 0.8360881373
0.93707633 0.554979678 0.8500588961
0.9436302605 0.5611289395 0.9119849953
0.6697306538 0.5441479833 0.7958037402
0.7095710349 0.5027562166 0.7887252948
0.7645207734 0.5057678777 0.8134802538
0.8392670482 0.5343302602 0.8633100474
0.84406945 0.5391158694 0.9267403804
0.903197708 0.5224643011 0.9436666742
0.7419765284 0.4898066121 0.4925736592
0.7452370701 0.5319794835 0.4521483072
0.797164334 0.5576851261 0.4343569008
0.8932852989 0.5653497885 0.4294467476
0.9321063645 0.5205585912 0.4040152748
0.9778093359 0.554801978 0.3772515489
0.8541577459 0.6898387263 0.5989549321
0.8698217033 0.6353642864 0.6090096155
0.8912486813 0.6023283188 0.5637450593
0.9274860373 0.5890771424 0.4775838199
0.9780145297 0.6204902912 0.4559254144
0.0146053582 0.5802698724 0.4227992368
0.5835121712 0.7382301311 0.6509752562
0.5365914933 0.7082325713 0.6314107699
0.4965005107 0.6821126086 0.6697821634
0.4546287133 0.6513854808 0.7491099652
0.4107687503 0.6867007789 0.7827720519
0.3673595453 0.6510017888 0.8122309228
0.6058165008 0.4927673933 0.7354260833
0.6162244522 0.5382030737 0.7711655107
0.0145101325 0.3984942753 0.3711523539
1.0026580554 0.4124173788 0.2557764721
0.0572345856 0.4215834948 0.3397495149
0.9693070039 0.3749667815 0.3420178237
0.0521272706 0.4296325675 0.2821106767
0.9634567318 0.3801571096 0.2852611544
0.0170092893 0.4024222629 0.4343052428
0.9467284768 0.473529952 0.2056290754
0.2029249423 0.962653674 0.5906247194
0.1351932148 1.0409909845 0.6428987773
0.1496244675 0.9490659309 0.6099525013
0.2185862368 1.0183540489 0.5934707908
0.1164200554 0.9881176622 0.6362953849
0.1846607912 0.0577813363 0.6182255982
0.2421810746 0.9160338448 0.5824203664
0.082187868 0.0619589658 0.7205703163
0.7961403928 1.0023210579 0.8063803947
0.7129364894 0.0851182076 0.8005353797
0.7556012086 1.0067237331 0.8469506608
0.7977283106 0.0448571212 0.7651200013
0.7145800355 0.0495165857 0.8457383344
0.7556745614 0.082973495 0.76060636
0.8370439925 0.9529408249 0.8048520805
0.6649582972 0.1708906227 0.7925195088
0.3985686678 0.6461758174 0.0626542252
0.342925713 0.6072134253 0.1564036286
0.4044464278 0.6730756295 0.1136333802
0.3713792815 0.5949797061 0.0601321956
0.3774997561 0.6547249488 0.1620964818
0.3428106227 0.576696536 0.1068092417
0.4138728451 0.6742807277 1.0080319197
0.2965799932 0.6098297965 0.2452456612
0.2556381601 0.9668767343 0.8047786036
0.2444953174 0.8552912839 0.7785004924
0.2043137905 0.945178081 0.7919758446
0.301623418 0.9326323644 0.8114571142
0.1977749718 0.8882643581 0.7802195304
0.2965130352 0.875286487 0.798331961
0.2598902486 1.0295560723 0.8143054438
0.2028063066 0.7711778121 0.7421384494
0.5744121302 0.5794661928 0.7873335842
0.4846233735 0.6140055843 0.7909151599
0.4398693437 0.5760311526 0.8183722563
0.3981340021 0.6104019395 0.8509136776
0.8327023699 0.7049765568 0.6960875602
0.8331478026 0.723052929 0.6411374655
0.8175352237 0.7779009729 0.6201089981
0.784851 0.8660277705 0.6233914097
0.8306461165 0.9058960254 0.6447280114
0.8186590599 0.9685518379 0.6339815389
0.6126442743 0.7589984343 0.5576958838
0.6209521218 0.7641485222 0.6154642172
0.6653766489 0.801647848 0.6393568732
0.7229165558 0.8797580876 0.6379174075
0.7164673785 0.9411240682 0.622596529
0.7582429293 0.9771931143 0.6564022737
0.6427990453 0.4821249542 0.474993827
0.69091741 0.4642976561 0.5016260946
0.6923612776 0.4156243663 0.5365942514
0.6661431676 0.3341382355 0.573978176
0.6450283538 0.2893180195 0.5333766473
0.6631442765 0.2315987343 0.5519356381
0.4468359288 0.0283597742 0.1300082884
0.481206825 0.9214598649 0.1603041504
0.4599643626 0.9900001813 0.088020908
0.4481164255 1.0109642661 0.1862460038
0.4761579542 0.9362151118 0.1046030042
0.4637422567 0.9576428779 0.2022474045
0.4305795988 0.0858632297 0.1098694067
0.5385683352 0.8507389024 0.2049473607
0.0219557829 0.0698201025 0.2995849264
0.9656550391 0.1586516275 0.3496250062
0.9729698073 0.0604479709 0.3300224058
0.0401325797 0.1245054308 0.2909958783
0.9443325219 0.1036951107 0.3546106518
0.0131212617 0.1685972103 0.3176601152
0.0599087397 0.0239340666 0.2747773242
0.907223182 0.1988441435 0.4147394139
0.2424288556 0.5423040497 0.9623164503
0.2090366009 0.6274969342 0.0335438906
0.2448307548 0.5357205469 0.0198401106
0.226744507 0.5933055343 0.9418023305
0.2297089095 0.5797669757 0.0557335046
0.2098312567 0.6357047597 0.9768048561
0.2604466395 0.5009205618 0.9196110077
0.1881510097 0.7193808119 0.0563547596
0.2714398261 0.0414949431 0.2185530589
0.2143356212 0.9812682864 0.3014878149
0.2374504865 0.0687655356 0.2562166523
0.2857130921 0.9851389817 0.2300790245
0.2068064796 1.0385832235 0.2947112761
0.2565026949 0.9545848868 0.2713484944
0.283426835 0.0658401439 0.1618864558
0.2006199517 0.9358604178 0.385280657
0.2100122607 0.8148259059 0.917292883
0.1006030449 0.8530473077 0.906446053
0.1977046921 0.8712025857 0.9194563431
0.1645198952 0.7784214755 0.9198224036
0.1440006909 0.890049374 0.9148861901
0.1093859471 0.7961148077 0.9150655461
0.2703241396 0.7979730202 0.9183714846
0.0193157617 0.8606930686 0.8455292193
0.8240344407 0.2370734684 1.0093755395
0.8941256344 0.2007639696 0.0962753333
0.8680452511 0.2002147257 0.999856963
0.8160022079 0.2542886362 0.0646167417
0.9020382296 0.1815531451 0.0431042553
0.8500762552 0.2378015776 0.1089295249
0.7826635053 0.2569060474 0.9642617929
0.9536628352 0.2102977993 0.1767542108
0.5932688726 0.0873681604 0.6189738896
0.5156535636 0.1277331519 0.6926368981
0.5518381697 0.1230373881 0.5995953757
0.599787272 0.077742958 0.6763284484
0.5143536176 0.1458534711 0.6384137079
0.5605067099 0.0965085857 0.7148288067
0.6223363472 0.0508637882 0.5758915902
0.4781569522 0.194107425 0.7526541816
0.737972953 0.7140188693 0.8135524266
0.7937750933 0.7476150703 0.9080043362
0.7501161622 0.7698988398 0.8231763351
0.754029376 0.6750960169 0.8529197673
0.7788581748 0.7880771137 0.8699425766
0.7818548858 0.6913668398 0.9003842639
0.7113021737 0.6966111084 0.759870637
0.882550214 0.7537630756 0.944474141
0.8866165568 0.9470138645 0.1117015865
0.8427990787 0.0544195513 0.09590626
0.9166215146 0.9935458035 0.1280140149
0.8355205562 0.9539329484 0.0852734455
0.8933927717 0.0474666781 0.1217490229
0.814178014 1.007746882 0.0763187773
0.9135374611 0.8921525797 0.1239291766
0.7724125768 0.1176899499 1.0724100618
0.4316832525 0.289532297 0.5021444162
0.4362313041 0.2348257151 0.4006506869
0.3824215637 0.2726479849 0.4774581763
0.4824616684 0.2802748866 0.4755334178
0.3842450537 0.2426262156 0.4264992584
0.4850654209 0.2525585123 0.4251955487
0.4308424486 0.3178994566 0.5590597293
0.4028109083 0.1939980411 0.3154504639
0.3814831197 1.0267680863 0.5864284049
0.4006851827 0.0384638461 0.4728720801
0.3638499853 0.9853703322 0.5491129095
0.407321815 0.0747585506 0.5662058933
0.372325023 0.9915859458 0.4918001338
0.4190548894 0.0791011667 0.5101641711
0.3650197153 1.0167797294 0.6456070396
0.4165312558 1.01545886 0.3757046692
0.2611451585 0.4548453625 0.5407472507
0.2926734491 0.5628001453 0.5093327669
0.3125555528 0.4637128634 0.5154748496
0.2270852049 0.5009867052 0.5520478706
0.3289210526 0.5171520814 0.5004694798
0.2424876513 0.5536894958 0.536139189
0.2430539347 0.3961711529 0.5522931295
0.3340130453 0.631714669 0.4534823652
0.5131855629 0.826360713 0.8904213466
0.5806165654 0.872405119 0.8095959723
0.5353730318 0.7913268976 0.8495669059
0.5253289666 0.8834880241 0.8902010837
0.5672432083 0.8161150442 0.8078575227
0.5589582847 0.9077525806 0.8502243646
0.4732576993 0.8016900179 0.9315760842
0.6563439003 0.9256424364 0.7736167628
0.8326472373 0.4166567866 0.691909409
0.9031373053 0.3642895449 0.7664892661
0.8173675795 0.3653605305 0.7155181586
0.8826567435 0.441253585 0.705928896
0.8536437776 0.3379807548 0.751304431
0.9173075201 0.4170740253 0.7469565892
0.789947939 0.4480784673 0.6558889318
0.9696377863 0.3587635354 0.8391087912
0.0673622925 0.0948572574 0.4801029841
0.0062592262 0.1692568928 0.5441236578
0.082792749 0.1519175678 0.483419392
0.0215835635 0.0780260775 0.5087837861
0.0529776833 0.1887793329 0.5173069481
-0.0104616425 0.11448898 0.5401534819
0.0990717204 0.0531407939 0.4453891309
0.0025302149 0.2248631037 0.6217930581
0.6968442485 0.4567044453 0.7557329993
0.6450805862 0.4496229774 0.7292512987
0.630716988 0.4008293565 0.6951246054
0.6418198954 0.326671166 0.6341372185
0.661179294 0.2687472419 0.6527168461
0.6419276577 0.2227987375 0.6121451061
0.5312900603 0.7013895253 0.5735875109
0.5685647322 0.7280253001 0.5370770581
0.5654801964 0.7186459127 0.4772926395
0.5397298945 0.6780681295 0.3936062155
0.4895327054 0.7116064986 0.3702041653
0.490639278 0.7087032501 0.3067305415
0.6972080106 0.5514976763 0.4262549277
0.6454553152 0.5273553842 0.4399427501
0.5927304392 0.5503279094 0.4189259884
0.5430539501 0.6172922742 0.3726586502
0.5422638187 0.6169745731 0.3083231046
0.4917643068 0.6475157359 0.2882787146
0.8699221598 0.616280973 0.6632085971
0.8520368442 0.6519736693 0.7064820247
0.6361978277 0.3470801069 0.8589671442
0.5452586892 0.3941615274 0.9109466814
0.5841135206 0.3196902912 0.8561801279
0.6415710145 0.3971936036 0.8886666898
0.5390674548 0.3492210336 0.8752222054
0.5976235857 0.4188240049 0.9202845128
0.6841213587 0.3165467761 0.8316319269
0.470844873 0.4567542985 0.9099930428
0.0943730465 0.6129300945 0.8700010652
0.1104601413 0.509033684 0.923497376
0.1081178373 0.5646725943 0.8397599502
0.091534603 0.6083518848 0.9278286657
0.1152373908 0.5135169801 0.8664931842
0.0992378979 0.5577459511 0.9556741967
0.0811709602 0.6665220953 0.8410590577
0.0738114389 0.4259525265 0.9518745328
0.5996048013 1.0447347394 0.3174339063
0.6840897911 0.0480192583 0.3933833357
0.6018770691 0.0885341891 0.3557159023
0.6383603797 1.0016431455 0.3184562154
0.6447071847 0.0900302636 0.3947393927
0.6807409838 1.0045100553 0.3563178845
0.5599344662 1.0460063368 0.2701256612
0.7665107691 0.097625461 0.4173193634
0.7978817957 0.6106704273 0.0819604058
0.784289489 0.7249114197 0.0825889645
0.8424265437 0.6463795379 0.0720321859
0.747816011 0.6334408867 0.0984390678
0.8370906841 0.7039401135 0.0751004763
0.7399657745 0.6906494003 0.0966602409
0.8057121966 0.5492358658 0.0662431708
0.7604628783 0.812582914 0.1152213872
0.1638971074 0.6555835229 0.4200740152
0.1612478999 0.7425696707 0.4960784427
0.133331467 0.6490627924 0.4695335755
0.1958816953 0.7035513151 0.4107848607
0.1324927901 0.6933194676 0.5074588605
0.1917881266 0.7486615336 0.4457030017
0.1647178775 0.6139556401 0.372331052
0.1155586206 0.8213526469 0.5276166362
0.136191832 0.4801386716 0.135644071
0.0729302338 0.5762959228 0.1131012716
0.1535489427 0.5324281226 0.1542634842
0.087343705 0.4763867092 0.1056960174
0.1233886146 0.5801561788 0.1402324065
0.0541449444 0.5238948331 0.0956721971
0.1766898826 0.4325225914 0.1481512808
1.0064732041 0.639045331 0.0706299744
0.4854845138 0.8417711454 0.6102231559
0.4225010348 0.8113034661 0.5177212749
0.5106386501 0.8408181999 0.5568906069
0.4306159777 0.8237396529 0.6162069812
0.4794302379 0.8256561612 0.5108476788
0.3977137275 0.8109766775 0.5713412322
0.5214056839 0.862746846 0.6586889016
0.3399647419 0.7998795405 0.4682136389
0.3542120444 0.34436681 0.1022523192
0.4453883775 0.322402403 0.03401372
0.366829961 0.3797220462 0.058533189
0.3916962671 0.3019717745 0.1151887327
0.409981609 0.3667248361 0.0225815031
0.4377812407 0.2899606647 0.0810242638
0.3078691975 0.356803495 0.1433851775
0.4663872002 0.2686884901 0.9573106825
0.2259335254 0.2124181541 0.0512959351
0.1553266009 0.2377772056 0.1413785137
0.2033613742 0.1686933256 0.0831527014
0.2186996279 0.2665234349 0.0692242042
0.1676907914 0.1826791729 0.1282282765
0.1842816398 0.2803271458 0.114282768
0.2554265178 0.1966835454 0.997137635
0.0992599913 0.2895613115 0.2095728897
0.334017534 0.0564866864 0.9315897885
0.4341402063 0.1047259734 0.9104574198
0.3364534157 0.1106386349 0.9107004918
0.3839961225 0.0250208434 0.9415588919
0.3860322298 0.1357652121 0.9004801274
0.4351807767 0.049293964 0.9278861478
0.278605457 0.0391939822 0.9566228802
0.53110188 0.1238052469 0.9148626645
0.9172283005 0.3457752846 0.0675519298
0.8115950014 0.3811001643 0.0971588141
0.9054432036 0.3554288495 0.1227130961
0.8775732315 0.3548501037 0.0263299402
0.8511054369 0.3703974926 0.1379172854
0.8253213549 0.3761785804 0.0411930264
0.9731278615 0.3270064253 0.0488151452
0.7147882475 0.3963025698 0.0752674914
0.5512363422 0.7592159283 1.0248506679
0.5793835024 0.6554493953 0.9906708169
0.5815395075 0.7553436746 0.9755573672
0.534459321 0.7125635903 0.0550126362
0.5976790857 0.7007459478 0.9611296126
0.5431735257 0.6583442921 1.0360599293
0.5378238477 0.8152617583 1.050181851
0.646162245 0.5855753733 0.9913578554
0.8999014604 0.9386471417 0.4420753331
0.8826277035 0.8267514829 0.436973841
0.8455692161 0.919317832 0.4522031586
0.9443305144 0.902826281 0.4349465593
0.8389669731 0.8609736463 0.4531934472
0.9369653424 0.8445782986 0.4301602826
0.913288829 -0.0011328525 0.4508029213
0.8916109588 0.7581186653 0.3714009227
0.6223765878 0.9062093628 0.4565961178
0.6651536769 0.8468971403 0.3649219331
0.6755059037 0.8813935674 0.4584291977
0.5886042473 0.8933212433 0.4119410854
0.6974025171 0.853040408 0.4120462849
0.610356774 0.8644955907 0.3667382203
0.6029989254 0.9518892063 0.4959492026
0.7181779521 0.7794754658 0.3169632522
0.0230292626 0.7133068098 0.2775726986
0.9139236874 0.6896733743 0.2502142606
-0.0095019478 0.7534453288 0.2517236154
1.0012834291 0.6610896183 0.287050374
0.9353118184 0.742195388 0.2382311538
0.9468082005 0.6477535603 0.2738684779
0.0824908143 0.7220469084 0.2984973991
0.825820376 0.6383995564 0.2483088617
0.9256808292 0.0565513515 0.9466849555
0.9268683663 0.1215207774 0.8516150154
0.8789619698 0.0552123583 0.9122316206
-0.0330624448 0.0964240779 0.9379358
0.8818126326 0.084606109 0.8636624639
0.967397441 0.1311379437 0.8913262281
-0.0657714583 0.0146155658 0.9922696349
0.9550517403 0.1654539303 0.7614229301
0.2742565416 0.8190454064 0.2229739007
0.291722647 0.8801057439 0.1260366459
0.2300121453 0.8447413099 0.1947977864
0.3277572104 0.8237209345 0.2003859316
0.2376827961 0.8740320129 0.1459150584
0.3368769662 0.8533963946 0.152329719
0.2607024822 0.7783432431 0.2686735266
0.2859727186 0.8831321016 0.0315118051
0.2241410256 0.2025825063 0.3763183021
0.2343124017 0.1718468764 0.4860567821
0.2333997317 0.1466609571 0.3872509762
0.2204323179 0.2438681591 0.4173812838
0.2349781266 0.1323262459 0.4440110648
0.2241021204 0.2288559604 0.4734596577
0.2208126699 0.2154264391 0.3146943924
0.2715659243 0.1700558 0.5788415102
0.626452862 0.0160926239 0.0603503265
0.6234641537 0.1280558668 1.0286877332
0.6530929759 0.0335675289 1.0115866776
0.5962989127 0.0571338061 0.0896353797
0.6508488865 0.0887411734 0.9953905513
0.5960076268 0.1134956351 0.0769259877
0.633789128 0.9573298975 0.0830431285
0.6053419631 0.2309550847 1.0209301521
0.8620443223 0.3912666805 0.557618831
0.8263434855 0.2813857215 0.5583044053
0.8852032649 0.3542394682 0.5957422579
0.8229915371 0.3703963218 0.517258807
0.867793196 0.2983745823 0.5937955505
0.8043635384 0.3160730795 0.515939566
0.8792481097 0.4525557197 0.5552796881
0.8199768159 0.1834876231 0.5783303674
0.6877133879 0.3473626765 0.3666886051
0.7956974211 0.3130490277 0.3574855617
0.7295444158 0.3876053198 0.3581233277
0.7008393721 0.2909946861 0.3711871007
0.7839405731 0.3700613336 0.3540913815
0.7543819551 0.2736199464 0.3670960825
0.6295853427 0.3675030374 0.3760746338
0.8639059871 0.2747544104 0.3056693757
0.2828929158 0.404078995 0.3580251855
0.3899795639 0.4298495436 0.3935842001
0.3076927337 0.3730653637 0.4008680258
0.3122816621 0.446280143 0.3320719002
0.3616095688 0.3849925305 0.4170933484
0.3642695777 0.4614378405 0.3515391218
0.2235391804 0.3911376043 0.3417983569
0.4857410374 0.4145970997 0.3838244758
0.5034613316 0.4329916503 0.6475665131
0.4424696329 0.5609723322 0.5409401698
0.4255576309 0.4560081471 0.7155376988
0.3604562886 0.5778279064 0.6047880403
0.4823924388 0.4680462328 0.5013058692
0.5431823966 0.5010023011 0.529300136
0.569082409 0.4132365729 0.5552839472
0.0337712586 0.1850716531 0.0995312518
0.1336250199 0.1460136012 0.9568195748
0.0166773512 0.0836307023 0.114205729
0.1215575163 0.0482888854 0.9737105188
0.0382848032 0.25144159 1.0247389902
0.1113957494 0.2597995329 1.0211328753
0.0592730952 0.2754610079 0.9407780184
0.1623615193 0.1996462014 0.7314071504
0.1033168049 0.3141370553 0.8558969653
0.1436246931 0.2700166335 0.661116758
0.1016353068 0.3908377592 0.7889637888
0.1711674194 0.2231390922 0.8808717192
0.1079919646 0.1863875717 0.8586340429
0.2124674081 0.1757658707 0.8010068634
0.4077721709 0.3368410013 0.7616522558
0.2498586981 0.328726182 0.6877066562
0.3627719842 0.3655256932 0.8529318416
0.2021480316 0.3616672763 0.7791110089
0.3965776875 0.3337340412 0.6635116083
0.350031863 0.275498007 0.656834486
0.3494080687 0.3582754858 0.5915767115
0.7218865839 0.3446071264 0.2224308756
0.6491750404 0.5078039381 0.2569285048
0.6278642795 0.3029596959 0.2217093329
0.5554920741 0.4631041345 0.2606987487
0.7571103853 0.4756455518 0.2752836419
0.7815620834 0.4323478816 0.2185748266
0.7331954139 0.4950101698 0.1592359986
0.488364778 0.681000946 0.1708072228
0.6517849916 0.6135850374 0.1663799208
0.451613149 0.5865369349 0.1436285939
0.6149852831 0.5166150137 0.1521267578
0.57365629 0.7287898419 0.2157021024
0.641639499 0.6974523254 0.2060289286
0.6331998496 0.777664015 0.1556780687
0.0935080134 0.4409176863 0.3586276265
0.9375866632 0.3511388073 0.3639716866
0.081216652 0.4517213806 0.2582943633
0.9266198503 0.3675124392 0.2630349893
-0.0216218074 0.4234821038 0.4487400325
0.0167465012 0.3627225643 0.4550904668
0.0945719523 0.4211280997 0.4434867284
0.1335357134 0.9066530012 0.6141414999
0.2589123516 1.0306789846 0.5761248108
0.0776539201 0.9788985716 0.6569932806
0.1948499622 0.1012751127 0.6178133355
0.2189405934 0.877949368 0.5685117983
0.2737072395 0.925525466 0.5511778569
0.2618795884 0.9324969579 0.6604464984
0.7536077367 0.9754816632 0.8798300769
0.8305300863 0.0455205637 0.735948925
0.6799932916 0.04896991 0.8746791803
0.7546598233 0.1143742074 0.7274031933
0.8225133087 0.9222595985 0.7742640894
0.8762718403 0.971893334 0.7921031969
0.8593933544 0.9455048688 0.8850071607
0.4233294865 0.7143640886 0.1126546895
0.3674734711 0.5708552911 1.0219814451
0.37810796 0.6781984184 0.2009035685
0.3187896025 0.5395671011 0.1077776527
0.375675418 0.6836427568 0.9847625896
0.4332211939 0.7137531555 1.0182076215
0.4453712069 0.6072527106 0.9684444863
0.1671545084 0.9707340106 0.7935813659
0.341747615 0.9513725889 0.82428716
0.158636586 0.8700005087 0.7674041725
0.3320998315 0.848035366 0.8001914033
0.2220018764 1.0528927523 0.7993279814
0.2647882487 1.0374648774 0.8599671694
0.3031450528 0.0664277923 0.7545724858
0.8173584954 0.7328642179 0.7287014895
0.8209464915 0.7835671787 0.5732523434
0.7889111533 0.8607364407 0.5773572046
0.8673154812 0.8907711253 0.6224959208
0.8358863418 0.9000009008 0.6909123423
0.8491943642 -0.0062397572 0.6577125416
0.8236723476 0.9830893561 0.5901739755
0.6396460569 0.7823645129 0.5294010077
0.6768320223 0.797156776 0.6826986487
0.7193208127 0.8760975072 0.6832142798
0.6735358723 0.9519410265 0.6351225344
0.7241892008 0.9487151185 0.578087913
0.7452545721 0.021145274 0.6506653608
0.7575052159 0.9677486918 0.7009397767
0.6050108011 0.4581001358 0.4773362672
0.7351675504 0.4035270571 0.547858541
0.7131576641 0.3289437694 0.5800995448
0.6662648832 0.3004650508 0.4950370661
0.5997761652 0.2934119239 0.5309103047
0.6433330043 0.2006977981 0.5257017182
0.7088943662 0.2287455599 0.5527750538
0.7254484586 0.4220964713 0.7559620438
0.586306777 0.3938401304 0.6880558722
0.5954158405 0.3301014247 0.6342867387
0.6378682101 0.263413852 0.6941687301
0.7058960503 0.266889572 0.659129862
0.6585436312 0.1831687109 0.6269384373
0.5940544811 0.2233246519 0.611147172
0.4962014233 0.6784830921 0.5562348767
0.5924281843 0.7463860648 0.4520577185
0.5788262965 0.6997612114 0.3805771545
0.4919504091 0.7536154812 0.3881336672
0.4512269298 0.6919075653 0.3866912482
0.4526614354 0.7287042987 0.2896955342
0.5280637383 0.7311007815 0.290372306
0.461711096 1.0035111276 0.0449900671
0.4314593033 0.0409040623 0.2165305679
0.4919353128 0.9075748693 0.0747817343
0.4592449621 0.9432971672 0.2448011969
0.3943006121 0.1018977577 0.1360130605
0.4641335063 0.1156140193 0.1171965454
0.4201485601 0.1190551472 0.0368985857
0.5499485267 0.136097358 0.5567613287
0.635678391 0.0533278203 0.6893209323
0.4800237799 0.1750786387 0.6287570133
0.56134523 0.0900695594 0.7594263734
0.6477053656 0.0210260571 0.6013562689
0.5880959656 0.0284199255 0.5538080079
0.6920493712 0.0823522064 0.5539459499
0.9587651897 0.0173985721 0.3337427821
0.0764352382 0.1329928282 0.2652046028
0.9042262108 0.094367695 0.3732594054
0.0266851809 0.2116181972 0.3117913429
0.0793989757 1.0036253472 0.3103826608
0.0342690888 -0.0061022816 0.2531609147
0.1270523453 1.0218917753 0.2288922647
0.2549916669 0.4961767089 0.0398047242
0.2262991099 0.6002174822 0.8968449636
0.2297178427 0.5745813122 0.1006786144
0.1914800941 0.6722396603 0.9592387422
0.3062858006 0.4938633582 0.921092997
0.238843763 0.460485291 0.9298511399
0.2634027087 0.4980202725 0.8408163503
0.221745535 0.1104937818 0.245525247
0.3185631572 0.9635904663 0.2073078565
0.1772775516 0.0605317173 0.3204030027
0.2658182059 0.9103889642 0.2759976885
0.2861475508 0.1113063892 0.1603208379
0.3222678723 0.0462793228 0.1470852619
0.2467037574 0.0498404537 0.0882970318
0.2331968094 0.8989135197 0.9192857946
0.1732319005 0.7347901066 0.9260485566
0.1358740315 0.9340868783 0.9103106459
0.073386723 0.768847215 0.9174074407
0.2963410429 0.8296400997 0.8966278857
0.2832328465 0.7951110537 0.9614902165
0.3213187291 0.7351430271 0.9063623522
0.8777972414 0.1855497479 0.9581336429
0.7790441448 0.2782791997 0.0747349592
0.9371476878 0.1550010857 1.0359895143
0.8428676495 0.2516730855 0.1519227554
0.7413573061 0.2612387991 0.985184089
0.7941376449 0.2987792271 0.9484175316
0.7679133744 0.1844992775 0.9285022445
0.743619342 0.8024660905 0.7923241379
0.7479580637 0.6284737267 0.8490235196
0.7909976237 0.8311396383 0.8754254377
0.7979086329 0.6631188636 0.9314488722
0.7208934695 0.7287375432 0.728569817
0.7298526595 0.6572517708 0.7449907095
0.6373743866 0.668714253 0.7390888062
0.955724352 0.9911214699 0.1502743611
0.8118277606 0.9172243968 0.069587352
0.9163438278 0.082053008 0.1405567212
0.7758775659 1.0082609714 0.0515373364
0.9455378812 0.8947486514 0.1589422421
0.8810943241 0.8668974183 0.1429314995
0.939879458 0.8288566957 0.0759069642
0.3435101089 0.2866360983 0.4967993429
0.5215894611 0.2890202918 0.4976816832
0.3439447847 0.2334562575 0.407991675
0.5230594983 0.2444227314 0.4020564529
0.4058503828 0.2918206258 0.5873254749
0.4744658321 0.3246279834 0.5756765429
0.4292496189 0.3990769164 0.5417103593
0.698110616 0.5837053497 0.3950554022
0.5548645576 0.5279784025 0.4290844856
0.5051870788 0.5940782233 0.3866795044
0.5446171821 0.5749866173 0.2918003594
0.583286908 0.6407307029 0.2933586242
0.4873003933 0.6439892215 0.2437914796
0.4546533816 0.6249387852 0.3060480905
0.8859457335 0.5747841464 0.6723539331
0.8550799388 0.6647148427 0.7969215713
0.8783066854 0.6176232351 0.8578857528
0.9694829151 0.579049452 0.82769223
0.9422712481 0.5122315246 0.8322963805
0.9878295085 0.5522241589 0.9258236714
0.9387937908 0.6055258891 0.921691088
0.6783337612 0.5778506388 0.82486586
0.7929669863 0.4719915413 0.7979051365
0.8528024553 0.4911706151 0.8513354829